TYPE : Vertex Cover
DIMENSION: 39
EDGE_DATA_SECTION:
0 2
0 5
0 8
0 27
0 36
1 2
1 11
1 22
1 35
2 3
2 6
2 8
2 14
2 18
2 37
3 10
3 19
3 21
3 23
3 27
4 5
4 9
4 11
4 12
4 23
4 26
4 28
4 32
4 36
5 6
5 8
5 14
5 24
5 28
5 30
5 32
5 33
6 13
6 21
6 25
6 26
6 27
6 31
7 17
7 23
7 31
7 33
8 9
8 11
8 12
8 16
8 20
8 22
8 23
8 32
8 34
9 10
9 13
9 16
9 21
9 22
9 27
9 28
9 30
9 32
9 38
10 13
10 19
10 27
10 35
10 37
11 14
11 18
11 25
11 27
11 29
12 15
12 22
12 27
12 29
13 23
13 26
13 30
13 35
13 37
13 38
14 25
14 31
14 35
15 30
15 35
15 37
16 18
16 26
16 31
16 34
17 20
17 21
17 22
17 23
17 25
18 19
18 25
18 26
18 33
19 20
19 22
19 23
19 25
19 35
19 37
20 35
21 24
21 25
21 27
21 36
22 23
22 25
22 27
22 28
22 37
23 31
24 28
24 30
24 38
25 28
25 29
25 34
25 35
26 29
26 38
28 30
28 36
29 31
29 33
29 34
29 38
31 33
32 34
32 35
32 36
33 37
34 36
36 37
-1
VERTEX_DEGREE:
5.0 4.0 8.0 6.0 9.0 10.0 8.0 4.0 12.0 12.0 7.0 8.0 6.0 9.0 6.0 4.0 6.0 6.0 7.0 9.0 4.0 8.0 11.0 9.0 5.0 12.0 7.0 9.0 8.0 8.0 6.0 7.0 7.0 6.0 6.0 9.0 7.0 8.0 5.0
VERTEX_COVER:
2 5 8 9 10 11 12 13 15 16 17 19 21 22 23 24 25 26 27 28 29 31 32 33 35 36
EOF
